\ SCIP STATISTICS
\   Problem name     : CapacitatedFacilityLocation-20-10
\   Variables        : 210 (210 binary, 0 integer, 0 implicit integer, 0 continuous)
\   Constraints      : 231
Minimize
 Obj: +1350.54980710912 x0 +809 x1 +1166.58369027902 x2 +1314.70085653944 x3 +1127.79855589139 x4 +1239.19861325033 x5
      +1136.4863183233 x6 +575.29802941365 x7 +710.020536791659 x8 +852.732615703429 x9 +140.54281645781 x10
      +119.155815932328 x11 +143.754400626758 x12 +45.3153352952557 x13 +53.6997230756055 x14 +76.4321119508683 x15
      +56.4845343457493 x16 +102.16528075386 x17 +63.3420659039351 x18 +95.466683870708 x19 +17.1317377535262 x20
      +38.6215060627082 x21 +19.7398945458317 x22 +11.6388885664919 x23 +11.8469784077314 x24 +8.8456712975333 x25
      +24.5435723253538 x26 +35.2809007359272 x27 +25.7118020295068 x28 +12.6882991826719 x29 +20.0055213943653 x30
      +26.6275192151271 x31 +20.3450166360414 x32 +12.1355120094897 x33 +13.7052660877498 x34 +8.09961452006762 x35
      +11.8346799117181 x36 +26.0464316172797 x37 +19.5684058536067 x38 +11.1432132889979 x39 +19.7851145444318 x40
      +34.8436962278064 x41 +21.8835389684236 x42 +7.73440493351367 x43 +8.24801030404692 x44 +9.11755198029433 x45
      +21.2391276539334 x46 +31.1222322549872 x47 +21.5576667801865 x48 +13.6050560636623 x49 +27.8110320807279 x50
      +63.0936820402634 x51 +28.1650493915259 x52 +32.9698473030766 x53 +35.611696376455 x54 +7.48235901083777 x55
      +32.7056306425281 x56 +64.2622907669768 x57 +51.5591869808526 x58 +9.90664320778672 x59 +140.518572126601 x60
      +45.2007910355569 x61 +139.835572452342 x62 +72.1325955946438 x63 +76.9950844647009 x64 +95.9934994977862 x65
      +35.1467740559664 x66 +35.3457120641488 x67 +38.5909104193491 x68 +106.474588218265 x69 +114.234364717487 x70
      +139.409440370285 x71 +101.194609062752 x72 +162.605906658026 x73 +168.268627833801 x74 +119.493716875746 x75
      +110.932907180712 x76 +171.796854703221 x77 +173.380933957485 x78 +107.165584457657 x79 +95.5412254167268 x80
      +83.7638858655331 x81 +100.345542577573 x82 +25.2023935477279 x83 +22.819675869428 x84 +65.4061731839325 x85
      +65.2433407877998 x86 +59.7008809245035 x87 +30.6646301936612 x88 +77.1751452064931 x89 +92.6781086325302 x90
      +57.6336575208723 x91 +85.8081816334868 x92 +94.6646213687298 x93 +99.3334939566397 x94 +77.1285754705155 x95
      +42.9334529011393 x96 +84.2044537829358 x97 +90.8903665090344 x98 +74.1547431688703 x99 +23.7378757472577 x100
      +89.4128675370016 x101 +29.8962750488693 x102 +37.9341645147037 x103 +39.0654852655128 x104 +14.4681493958552 x105
      +56.5817169807048 x106 +85.9668124229063 x107 +67.055598757518 x108 +18.1943306196077 x109 +43.4572658203789 x110
      +243.83064858417 x111 +24.3793987247265 x112 +177.218254090416 x113 +182.838126494486 x114 +93.7191260976816 x115
      +165.84867385342 x116 +260.976787634857 x117 +231.742205339241 x118 +69.4393484144141 x119 +159.201886957624 x120
      +54.5489022583196 x121 +158.443369093472 x122 +80.9953100508387 x123 +86.7613948041837 x124 +107.660079888573 x125
      +37.9381851585588 x126 +44.2852367721671 x127 +44.9284221675445 x128 +119.783204273097 x129 +35.1627507336377 x130
      +55.9759359081243 x131 +35.1801484886757 x132 +29.7216625793224 x133 +32.7232266696289 x134 +13.2182212553404 x135
      +25.664901423097 x136 +56.9743120645686 x137 +45.1018651186001 x138 +17.2437415267143 x139 +41.3199185626455 x140
      +247.68169007828 x141 +51.3048584261019 x142 +154.834800745296 x143 +156.946387397443 x144 +93.6475364577133 x145
      +177.92638700021 x146 +250.136286191096 x147 +214.462058844016 x148 +81.3305828260417 x149 +26.3546174540671 x150
      +86.2824072716004 x151 +32.9184290064463 x152 +38.1216152422327 x153 +37.9322930176329 x154 +26.27538538739 x155
      +59.9621612977821 x156 +81.2214252922998 x157 +63.8681250571518 x158 +28.7030773798102 x159 +74.158787277628 x160
      +78.7208048354342 x161 +71.7188081322969 x162 +59.478265785616 x163 +65.0644977617193 x164 +40.6363364572811 x165
      +27.1920821865275 x166 +86.0010688069286 x167 +72.8622783759602 x168 +44.391347250756 x169 +27.5611943469142 x170
      +276.00359531503 x171 +45.3142964039028 x172 +163.139496267767 x173 +166.144094590221 x174 +87.4345252062056 x175
      +190.949748178778 x176 +277.962145419031 x177 +234.722230020218 x178 +73.2656727940014 x179 +155.539493220803 x180
      +124.79229142169 x181 +141.934862685453 x182 +181.321456990129 x183 +188.626185015246 x184 +143.504436087512 x185
      +104.079718724593 x186 +169.491374798918 x187 +180.236520791669 x188 +134.139432532766 x189 +41.5435673195869 x190
      +201.727198865511 x191 +50.6524661045453 x192 +124.029649412568 x193 +125.169903829101 x194 +79.3861310774799 x195
      +147.0214531386 x196 +201.709322951876 x197 +172.247141543519 x198 +71.4251996297392 x199 +80.625321683113 x200
      +98.6114974966493 x201 +86.9038921617838 x202 +35.1835516591379 x203 +31.5195253203224 x204 +61.3468578568649 x205
      +77.8710573393187 x206 +79.4450148250483 x207 +54.740613436409 x208 +70.8850770824616 x209
Subject to
 c0: +1 x10 +1 x11 +1 x12 +1 x13 +1 x14 +1 x15 +1 x16 +1 x17 +1 x18 +1 x19 >= +1
 c1: +1 x20 +1 x21 +1 x22 +1 x23 +1 x24 +1 x25 +1 x26 +1 x27 +1 x28 +1 x29 >= +1
 c2: +1 x30 +1 x31 +1 x32 +1 x33 +1 x34 +1 x35 +1 x36 +1 x37 +1 x38 +1 x39 >= +1
 c3: +1 x40 +1 x41 +1 x42 +1 x43 +1 x44 +1 x45 +1 x46 +1 x47 +1 x48 +1 x49 >= +1
 c4: +1 x50 +1 x51 +1 x52 +1 x53 +1 x54 +1 x55 +1 x56 +1 x57 +1 x58 +1 x59 >= +1
 c5: +1 x60 +1 x61 +1 x62 +1 x63 +1 x64 +1 x65 +1 x66 +1 x67 +1 x68 +1 x69 >= +1
 c6: +1 x70 +1 x71 +1 x72 +1 x73 +1 x74 +1 x75 +1 x76 +1 x77 +1 x78 +1 x79 >= +1
 c7: +1 x80 +1 x81 +1 x82 +1 x83 +1 x84 +1 x85 +1 x86 +1 x87 +1 x88 +1 x89 >= +1
 c8: +1 x90 +1 x91 +1 x92 +1 x93 +1 x94 +1 x95 +1 x96 +1 x97 +1 x98 +1 x99 >= +1
 c9: +1 x100 +1 x101 +1 x102 +1 x103 +1 x104 +1 x105 +1 x106 +1 x107 +1 x108 +1 x109 >= +1
 c10: +1 x110 +1 x111 +1 x112 +1 x113 +1 x114 +1 x115 +1 x116 +1 x117 +1 x118 +1 x119 >= +1
 c11: +1 x120 +1 x121 +1 x122 +1 x123 +1 x124 +1 x125 +1 x126 +1 x127 +1 x128 +1 x129 >= +1
 c12: +1 x130 +1 x131 +1 x132 +1 x133 +1 x134 +1 x135 +1 x136 +1 x137 +1 x138 +1 x139 >= +1
 c13: +1 x140 +1 x141 +1 x142 +1 x143 +1 x144 +1 x145 +1 x146 +1 x147 +1 x148 +1 x149 >= +1
 c14: +1 x150 +1 x151 +1 x152 +1 x153 +1 x154 +1 x155 +1 x156 +1 x157 +1 x158 +1 x159 >= +1
 c15: +1 x160 +1 x161 +1 x162 +1 x163 +1 x164 +1 x165 +1 x166 +1 x167 +1 x168 +1 x169 >= +1
 c16: +1 x170 +1 x171 +1 x172 +1 x173 +1 x174 +1 x175 +1 x176 +1 x177 +1 x178 +1 x179 >= +1
 c17: +1 x180 +1 x181 +1 x182 +1 x183 +1 x184 +1 x185 +1 x186 +1 x187 +1 x188 +1 x189 >= +1
 c18: +1 x190 +1 x191 +1 x192 +1 x193 +1 x194 +1 x195 +1 x196 +1 x197 +1 x198 +1 x199 >= +1
 c19: +1 x200 +1 x201 +1 x202 +1 x203 +1 x204 +1 x205 +1 x206 +1 x207 +1 x208 +1 x209 >= +1
 c20: +26 x10 +5 x20 +5 x30 +5 x40 +10 x50 +19 x60 +18 x70 +13 x80 +14 x90 +11 x100 +27 x110 +22 x120
  +10 x130 +23 x140 +9 x150 +17 x160 +28 x170 +22 x180 +18 x190 +11 x200 -255 x0 <= +0
 c21: +26 x11 +5 x21 +5 x31 +5 x41 +10 x51 +19 x61 +18 x71 +13 x81 +14 x91 +11 x101 +27 x111 +22 x121
  +10 x131 +23 x141 +9 x151 +17 x161 +28 x171 +22 x181 +18 x191 +11 x201 -83 x1 <= +0
 c22: +26 x12 +5 x22 +5 x32 +5 x42 +10 x52 +19 x62 +18 x72 +13 x82 +14 x92 +11 x102 +27 x112 +22 x122
  +10 x132 +23 x142 +9 x152 +17 x162 +28 x172 +22 x182 +18 x192 +11 x202 -227 x2 <= +0
 c23: +26 x13 +5 x23 +5 x33 +5 x43 +10 x53 +19 x63 +18 x73 +13 x83 +14 x93 +11 x103 +27 x113 +22 x123
  +10 x133 +23 x143 +9 x153 +17 x163 +28 x173 +22 x183 +18 x193 +11 x203 -242 x3 <= +0
 c24: +26 x14 +5 x24 +5 x34 +5 x44 +10 x54 +19 x64 +18 x74 +13 x84 +14 x94 +11 x104 +27 x114 +22 x124
  +10 x134 +23 x144 +9 x154 +17 x164 +28 x174 +22 x184 +18 x194 +11 x204 -189 x4 <= +0
 c25: +26 x15 +5 x25 +5 x35 +5 x45 +10 x55 +19 x65 +18 x75 +13 x85 +14 x95 +11 x105 +27 x115 +22 x125
  +10 x135 +23 x145 +9 x155 +17 x165 +28 x175 +22 x185 +18 x195 +11 x205 -198 x5 <= +0
 c26: +26 x16 +5 x26 +5 x36 +5 x46 +10 x56 +19 x66 +18 x76 +13 x86 +14 x96 +11 x106 +27 x116 +22 x126
  +10 x136 +23 x146 +9 x156 +17 x166 +28 x176 +22 x186 +18 x196 +11 x206 -171 x6 <= +0
 c27: +26 x17 +5 x27 +5 x37 +5 x47 +10 x57 +19 x67 +18 x77 +13 x87 +14 x97 +11 x107 +27 x117 +22 x127
  +10 x137 +23 x147 +9 x157 +17 x167 +28 x177 +22 x187 +18 x197 +11 x207 -44 x7 <= +0
 c28: +26 x18 +5 x28 +5 x38 +5 x48 +10 x58 +19 x68 +18 x78 +13 x88 +14 x98 +11 x108 +27 x118 +22 x128
  +10 x138 +23 x148 +9 x158 +17 x168 +28 x178 +22 x188 +18 x198 +11 x208 -59 x8 <= +0
 c29: +26 x19 +5 x29 +5 x39 +5 x49 +10 x59 +19 x69 +18 x79 +13 x89 +14 x99 +11 x109 +27 x119 +22 x129
  +10 x139 +23 x149 +9 x159 +17 x169 +28 x179 +22 x189 +18 x199 +11 x209 -96 x9 <= +0
 c30: +255 x0 +83 x1 +227 x2 +242 x3 +189 x4 +198 x5 +171 x6 +44 x7 +59 x8 +96 x9 >= +313
 c31: +1 x10 -1 x0 <= +0
 c32: +1 x11 -1 x1 <= +0
 c33: +1 x12 -1 x2 <= +0
 c34: +1 x13 -1 x3 <= +0
 c35: +1 x14 -1 x4 <= +0
 c36: +1 x15 -1 x5 <= +0
 c37: +1 x16 -1 x6 <= +0
 c38: +1 x17 -1 x7 <= +0
 c39: +1 x18 -1 x8 <= +0
 c40: +1 x19 -1 x9 <= +0
 c41: +1 x20 -1 x0 <= +0
 c42: +1 x21 -1 x1 <= +0
 c43: +1 x22 -1 x2 <= +0
 c44: +1 x23 -1 x3 <= +0
 c45: +1 x24 -1 x4 <= +0
 c46: +1 x25 -1 x5 <= +0
 c47: +1 x26 -1 x6 <= +0
 c48: +1 x27 -1 x7 <= +0
 c49: +1 x28 -1 x8 <= +0
 c50: +1 x29 -1 x9 <= +0
 c51: +1 x30 -1 x0 <= +0
 c52: +1 x31 -1 x1 <= +0
 c53: +1 x32 -1 x2 <= +0
 c54: +1 x33 -1 x3 <= +0
 c55: +1 x34 -1 x4 <= +0
 c56: +1 x35 -1 x5 <= +0
 c57: +1 x36 -1 x6 <= +0
 c58: +1 x37 -1 x7 <= +0
 c59: +1 x38 -1 x8 <= +0
 c60: +1 x39 -1 x9 <= +0
 c61: +1 x40 -1 x0 <= +0
 c62: +1 x41 -1 x1 <= +0
 c63: +1 x42 -1 x2 <= +0
 c64: +1 x43 -1 x3 <= +0
 c65: +1 x44 -1 x4 <= +0
 c66: +1 x45 -1 x5 <= +0
 c67: +1 x46 -1 x6 <= +0
 c68: +1 x47 -1 x7 <= +0
 c69: +1 x48 -1 x8 <= +0
 c70: +1 x49 -1 x9 <= +0
 c71: +1 x50 -1 x0 <= +0
 c72: +1 x51 -1 x1 <= +0
 c73: +1 x52 -1 x2 <= +0
 c74: +1 x53 -1 x3 <= +0
 c75: +1 x54 -1 x4 <= +0
 c76: +1 x55 -1 x5 <= +0
 c77: +1 x56 -1 x6 <= +0
 c78: +1 x57 -1 x7 <= +0
 c79: +1 x58 -1 x8 <= +0
 c80: +1 x59 -1 x9 <= +0
 c81: +1 x60 -1 x0 <= +0
 c82: +1 x61 -1 x1 <= +0
 c83: +1 x62 -1 x2 <= +0
 c84: +1 x63 -1 x3 <= +0
 c85: +1 x64 -1 x4 <= +0
 c86: +1 x65 -1 x5 <= +0
 c87: +1 x66 -1 x6 <= +0
 c88: +1 x67 -1 x7 <= +0
 c89: +1 x68 -1 x8 <= +0
 c90: +1 x69 -1 x9 <= +0
 c91: +1 x70 -1 x0 <= +0
 c92: +1 x71 -1 x1 <= +0
 c93: +1 x72 -1 x2 <= +0
 c94: +1 x73 -1 x3 <= +0
 c95: +1 x74 -1 x4 <= +0
 c96: +1 x75 -1 x5 <= +0
 c97: +1 x76 -1 x6 <= +0
 c98: +1 x77 -1 x7 <= +0
 c99: +1 x78 -1 x8 <= +0
 c100: +1 x79 -1 x9 <= +0
 c101: +1 x80 -1 x0 <= +0
 c102: +1 x81 -1 x1 <= +0
 c103: +1 x82 -1 x2 <= +0
 c104: +1 x83 -1 x3 <= +0
 c105: +1 x84 -1 x4 <= +0
 c106: +1 x85 -1 x5 <= +0
 c107: +1 x86 -1 x6 <= +0
 c108: +1 x87 -1 x7 <= +0
 c109: +1 x88 -1 x8 <= +0
 c110: +1 x89 -1 x9 <= +0
 c111: +1 x90 -1 x0 <= +0
 c112: +1 x91 -1 x1 <= +0
 c113: +1 x92 -1 x2 <= +0
 c114: +1 x93 -1 x3 <= +0
 c115: +1 x94 -1 x4 <= +0
 c116: +1 x95 -1 x5 <= +0
 c117: +1 x96 -1 x6 <= +0
 c118: +1 x97 -1 x7 <= +0
 c119: +1 x98 -1 x8 <= +0
 c120: +1 x99 -1 x9 <= +0
 c121: +1 x100 -1 x0 <= +0
 c122: +1 x101 -1 x1 <= +0
 c123: +1 x102 -1 x2 <= +0
 c124: +1 x103 -1 x3 <= +0
 c125: +1 x104 -1 x4 <= +0
 c126: +1 x105 -1 x5 <= +0
 c127: +1 x106 -1 x6 <= +0
 c128: +1 x107 -1 x7 <= +0
 c129: +1 x108 -1 x8 <= +0
 c130: +1 x109 -1 x9 <= +0
 c131: +1 x110 -1 x0 <= +0
 c132: +1 x111 -1 x1 <= +0
 c133: +1 x112 -1 x2 <= +0
 c134: +1 x113 -1 x3 <= +0
 c135: +1 x114 -1 x4 <= +0
 c136: +1 x115 -1 x5 <= +0
 c137: +1 x116 -1 x6 <= +0
 c138: +1 x117 -1 x7 <= +0
 c139: +1 x118 -1 x8 <= +0
 c140: +1 x119 -1 x9 <= +0
 c141: +1 x120 -1 x0 <= +0
 c142: +1 x121 -1 x1 <= +0
 c143: +1 x122 -1 x2 <= +0
 c144: +1 x123 -1 x3 <= +0
 c145: +1 x124 -1 x4 <= +0
 c146: +1 x125 -1 x5 <= +0
 c147: +1 x126 -1 x6 <= +0
 c148: +1 x127 -1 x7 <= +0
 c149: +1 x128 -1 x8 <= +0
 c150: +1 x129 -1 x9 <= +0
 c151: +1 x130 -1 x0 <= +0
 c152: +1 x131 -1 x1 <= +0
 c153: +1 x132 -1 x2 <= +0
 c154: +1 x133 -1 x3 <= +0
 c155: +1 x134 -1 x4 <= +0
 c156: +1 x135 -1 x5 <= +0
 c157: +1 x136 -1 x6 <= +0
 c158: +1 x137 -1 x7 <= +0
 c159: +1 x138 -1 x8 <= +0
 c160: +1 x139 -1 x9 <= +0
 c161: +1 x140 -1 x0 <= +0
 c162: +1 x141 -1 x1 <= +0
 c163: +1 x142 -1 x2 <= +0
 c164: +1 x143 -1 x3 <= +0
 c165: +1 x144 -1 x4 <= +0
 c166: +1 x145 -1 x5 <= +0
 c167: +1 x146 -1 x6 <= +0
 c168: +1 x147 -1 x7 <= +0
 c169: +1 x148 -1 x8 <= +0
 c170: +1 x149 -1 x9 <= +0
 c171: +1 x150 -1 x0 <= +0
 c172: +1 x151 -1 x1 <= +0
 c173: +1 x152 -1 x2 <= +0
 c174: +1 x153 -1 x3 <= +0
 c175: +1 x154 -1 x4 <= +0
 c176: +1 x155 -1 x5 <= +0
 c177: +1 x156 -1 x6 <= +0
 c178: +1 x157 -1 x7 <= +0
 c179: +1 x158 -1 x8 <= +0
 c180: +1 x159 -1 x9 <= +0
 c181: +1 x160 -1 x0 <= +0
 c182: +1 x161 -1 x1 <= +0
 c183: +1 x162 -1 x2 <= +0
 c184: +1 x163 -1 x3 <= +0
 c185: +1 x164 -1 x4 <= +0
 c186: +1 x165 -1 x5 <= +0
 c187: +1 x166 -1 x6 <= +0
 c188: +1 x167 -1 x7 <= +0
 c189: +1 x168 -1 x8 <= +0
 c190: +1 x169 -1 x9 <= +0
 c191: +1 x170 -1 x0 <= +0
 c192: +1 x171 -1 x1 <= +0
 c193: +1 x172 -1 x2 <= +0
 c194: +1 x173 -1 x3 <= +0
 c195: +1 x174 -1 x4 <= +0
 c196: +1 x175 -1 x5 <= +0
 c197: +1 x176 -1 x6 <= +0
 c198: +1 x177 -1 x7 <= +0
 c199: +1 x178 -1 x8 <= +0
 c200: +1 x179 -1 x9 <= +0
 c201: +1 x180 -1 x0 <= +0
 c202: +1 x181 -1 x1 <= +0
 c203: +1 x182 -1 x2 <= +0
 c204: +1 x183 -1 x3 <= +0
 c205: +1 x184 -1 x4 <= +0
 c206: +1 x185 -1 x5 <= +0
 c207: +1 x186 -1 x6 <= +0
 c208: +1 x187 -1 x7 <= +0
 c209: +1 x188 -1 x8 <= +0
 c210: +1 x189 -1 x9 <= +0
 c211: +1 x190 -1 x0 <= +0
 c212: +1 x191 -1 x1 <= +0
 c213: +1 x192 -1 x2 <= +0
 c214: +1 x193 -1 x3 <= +0
 c215: +1 x194 -1 x4 <= +0
 c216: +1 x195 -1 x5 <= +0
 c217: +1 x196 -1 x6 <= +0
 c218: +1 x197 -1 x7 <= +0
 c219: +1 x198 -1 x8 <= +0
 c220: +1 x199 -1 x9 <= +0
 c221: +1 x200 -1 x0 <= +0
 c222: +1 x201 -1 x1 <= +0
 c223: +1 x202 -1 x2 <= +0
 c224: +1 x203 -1 x3 <= +0
 c225: +1 x204 -1 x4 <= +0
 c226: +1 x205 -1 x5 <= +0
 c227: +1 x206 -1 x6 <= +0
 c228: +1 x207 -1 x7 <= +0
 c229: +1 x208 -1 x8 <= +0
 c230: +1 x209 -1 x9 <= +0
Bounds
 0 <= x0 <= 1
 0 <= x1 <= 1
 0 <= x2 <= 1
 0 <= x3 <= 1
 0 <= x4 <= 1
 0 <= x5 <= 1
 0 <= x6 <= 1
 0 <= x7 <= 1
 0 <= x8 <= 1
 0 <= x9 <= 1
 0 <= x10 <= 1
 0 <= x11 <= 1
 0 <= x12 <= 1
 0 <= x13 <= 1
 0 <= x14 <= 1
 0 <= x15 <= 1
 0 <= x16 <= 1
 0 <= x17 <= 1
 0 <= x18 <= 1
 0 <= x19 <= 1
 0 <= x20 <= 1
 0 <= x21 <= 1
 0 <= x22 <= 1
 0 <= x23 <= 1
 0 <= x24 <= 1
 0 <= x25 <= 1
 0 <= x26 <= 1
 0 <= x27 <= 1
 0 <= x28 <= 1
 0 <= x29 <= 1
 0 <= x30 <= 1
 0 <= x31 <= 1
 0 <= x32 <= 1
 0 <= x33 <= 1
 0 <= x34 <= 1
 0 <= x35 <= 1
 0 <= x36 <= 1
 0 <= x37 <= 1
 0 <= x38 <= 1
 0 <= x39 <= 1
 0 <= x40 <= 1
 0 <= x41 <= 1
 0 <= x42 <= 1
 0 <= x43 <= 1
 0 <= x44 <= 1
 0 <= x45 <= 1
 0 <= x46 <= 1
 0 <= x47 <= 1
 0 <= x48 <= 1
 0 <= x49 <= 1
 0 <= x50 <= 1
 0 <= x51 <= 1
 0 <= x52 <= 1
 0 <= x53 <= 1
 0 <= x54 <= 1
 0 <= x55 <= 1
 0 <= x56 <= 1
 0 <= x57 <= 1
 0 <= x58 <= 1
 0 <= x59 <= 1
 0 <= x60 <= 1
 0 <= x61 <= 1
 0 <= x62 <= 1
 0 <= x63 <= 1
 0 <= x64 <= 1
 0 <= x65 <= 1
 0 <= x66 <= 1
 0 <= x67 <= 1
 0 <= x68 <= 1
 0 <= x69 <= 1
 0 <= x70 <= 1
 0 <= x71 <= 1
 0 <= x72 <= 1
 0 <= x73 <= 1
 0 <= x74 <= 1
 0 <= x75 <= 1
 0 <= x76 <= 1
 0 <= x77 <= 1
 0 <= x78 <= 1
 0 <= x79 <= 1
 0 <= x80 <= 1
 0 <= x81 <= 1
 0 <= x82 <= 1
 0 <= x83 <= 1
 0 <= x84 <= 1
 0 <= x85 <= 1
 0 <= x86 <= 1
 0 <= x87 <= 1
 0 <= x88 <= 1
 0 <= x89 <= 1
 0 <= x90 <= 1
 0 <= x91 <= 1
 0 <= x92 <= 1
 0 <= x93 <= 1
 0 <= x94 <= 1
 0 <= x95 <= 1
 0 <= x96 <= 1
 0 <= x97 <= 1
 0 <= x98 <= 1
 0 <= x99 <= 1
 0 <= x100 <= 1
 0 <= x101 <= 1
 0 <= x102 <= 1
 0 <= x103 <= 1
 0 <= x104 <= 1
 0 <= x105 <= 1
 0 <= x106 <= 1
 0 <= x107 <= 1
 0 <= x108 <= 1
 0 <= x109 <= 1
 0 <= x110 <= 1
 0 <= x111 <= 1
 0 <= x112 <= 1
 0 <= x113 <= 1
 0 <= x114 <= 1
 0 <= x115 <= 1
 0 <= x116 <= 1
 0 <= x117 <= 1
 0 <= x118 <= 1
 0 <= x119 <= 1
 0 <= x120 <= 1
 0 <= x121 <= 1
 0 <= x122 <= 1
 0 <= x123 <= 1
 0 <= x124 <= 1
 0 <= x125 <= 1
 0 <= x126 <= 1
 0 <= x127 <= 1
 0 <= x128 <= 1
 0 <= x129 <= 1
 0 <= x130 <= 1
 0 <= x131 <= 1
 0 <= x132 <= 1
 0 <= x133 <= 1
 0 <= x134 <= 1
 0 <= x135 <= 1
 0 <= x136 <= 1
 0 <= x137 <= 1
 0 <= x138 <= 1
 0 <= x139 <= 1
 0 <= x140 <= 1
 0 <= x141 <= 1
 0 <= x142 <= 1
 0 <= x143 <= 1
 0 <= x144 <= 1
 0 <= x145 <= 1
 0 <= x146 <= 1
 0 <= x147 <= 1
 0 <= x148 <= 1
 0 <= x149 <= 1
 0 <= x150 <= 1
 0 <= x151 <= 1
 0 <= x152 <= 1
 0 <= x153 <= 1
 0 <= x154 <= 1
 0 <= x155 <= 1
 0 <= x156 <= 1
 0 <= x157 <= 1
 0 <= x158 <= 1
 0 <= x159 <= 1
 0 <= x160 <= 1
 0 <= x161 <= 1
 0 <= x162 <= 1
 0 <= x163 <= 1
 0 <= x164 <= 1
 0 <= x165 <= 1
 0 <= x166 <= 1
 0 <= x167 <= 1
 0 <= x168 <= 1
 0 <= x169 <= 1
 0 <= x170 <= 1
 0 <= x171 <= 1
 0 <= x172 <= 1
 0 <= x173 <= 1
 0 <= x174 <= 1
 0 <= x175 <= 1
 0 <= x176 <= 1
 0 <= x177 <= 1
 0 <= x178 <= 1
 0 <= x179 <= 1
 0 <= x180 <= 1
 0 <= x181 <= 1
 0 <= x182 <= 1
 0 <= x183 <= 1
 0 <= x184 <= 1
 0 <= x185 <= 1
 0 <= x186 <= 1
 0 <= x187 <= 1
 0 <= x188 <= 1
 0 <= x189 <= 1
 0 <= x190 <= 1
 0 <= x191 <= 1
 0 <= x192 <= 1
 0 <= x193 <= 1
 0 <= x194 <= 1
 0 <= x195 <= 1
 0 <= x196 <= 1
 0 <= x197 <= 1
 0 <= x198 <= 1
 0 <= x199 <= 1
 0 <= x200 <= 1
 0 <= x201 <= 1
 0 <= x202 <= 1
 0 <= x203 <= 1
 0 <= x204 <= 1
 0 <= x205 <= 1
 0 <= x206 <= 1
 0 <= x207 <= 1
 0 <= x208 <= 1
 0 <= x209 <= 1
Binaries
 x0 x1 x2 x3 x4 x5 x6 x7 x8 x9 x10 x11 x12 x13 x14 x15 x16 x17 x18 x19 x20 x21 x22 x23 x24 x25 x26 x27
 x28 x29 x30 x31 x32 x33 x34 x35 x36 x37 x38 x39 x40 x41 x42 x43 x44 x45 x46 x47 x48 x49 x50 x51 x52 x53
 x54 x55 x56 x57 x58 x59 x60 x61 x62 x63 x64 x65 x66 x67 x68 x69 x70 x71 x72 x73 x74 x75 x76 x77 x78 x79
 x80 x81 x82 x83 x84 x85 x86 x87 x88 x89 x90 x91 x92 x93 x94 x95 x96 x97 x98 x99 x100 x101 x102 x103 x104
 x105 x106 x107 x108 x109 x110 x111 x112 x113 x114 x115 x116 x117 x118 x119 x120 x121 x122 x123 x124 x125
 x126 x127 x128 x129 x130 x131 x132 x133 x134 x135 x136 x137 x138 x139 x140 x141 x142 x143 x144 x145 x146
 x147 x148 x149 x150 x151 x152 x153 x154 x155 x156 x157 x158 x159 x160 x161 x162 x163 x164 x165 x166 x167
 x168 x169 x170 x171 x172 x173 x174 x175 x176 x177 x178 x179 x180 x181 x182 x183 x184 x185 x186 x187 x188
 x189 x190 x191 x192 x193 x194 x195 x196 x197 x198 x199 x200 x201 x202 x203 x204 x205 x206 x207 x208 x209
End
